% Lawrence 10x5 instance (Table 3, instance 5); also called (setf5) or (F5)
n_jobs = 10;
n_machines = 5;
machine = [|2, 1, 5, 3, 4
           |5, 4, 1, 3, 2
           |2, 4, 3, 1, 5
           |1, 4, 5, 2, 3
           |5, 3, 4, 2, 1
           |4, 1, 5, 2, 3
           |1, 4, 2, 5, 3
           |5, 3, 4, 2, 1
           |3, 4, 2, 1, 5
           |3, 4, 1, 5, 2|];
duration = [|72, 87, 95, 66, 60
            |5, 35, 48, 39, 54
            |46, 20, 21, 97, 55
            |59, 19, 46, 34, 37
            |23, 73, 25, 24, 28
            |28, 45, 5, 78, 83
            |53, 71, 37, 29, 12
            |12, 87, 33, 55, 38
            |49, 83, 40, 48, 7
            |65, 17, 90, 27, 23|];
deadline = [887, 916, 951, 881, 711, 795, 679, 694, 931, 795];
penalty = [34, 26, 23, 87, 5, 61, 48, 62, 94, 42];